NAME: cuum480.tsp
TYPE: TSP
COMMENT: User-generated TSP file
DIMENSION: 480
EDGE_WEIGHT_TYPE: EUC_2D
NODE_COORD_SECTION
1 145.0 55.0
2 326.0 102.0
3 282.0 336.0
4 289.0 367.0
5 340.0 146.0
6 175.0 180.0
7 300.0 22.0
8 370.0 124.0
9 262.0 40.0
10 460.0 63.0
11 265.0 172.0
12 408.0 124.0
13 35.0 96.0
14 167.0 23.0
15 456.0 201.0
16 162.0 22.0
17 416.0 251.0
18 265.0 201.0
19 335.0 157.0
20 327.0 144.0
21 201.0 391.0
22 163.0 239.0
23 479.0 269.0
24 305.0 337.0
25 275.0 1.0
26 284.0 85.0
27 340.0 456.0
28 287.0 77.0
29 135.0 309.0
30 260.0 412.0
31 103.0 312.0
32 293.0 318.0
33 217.0 336.0
34 95.0 155.0
35 59.0 154.0
36 459.0 383.0
37 61.0 230.0
38 280.0 402.0
39 179.0 161.0
40 151.0 172.0
41 433.0 149.0
42 148.0 307.0
43 113.0 72.0
44 444.0 167.0
45 58.0 406.0
46 289.0 455.0
47 370.0 148.0
48 354.0 238.0
49 298.0 142.0
50 378.0 226.0
51 277.0 124.0
52 434.0 39.0
53 391.0 376.0
54 165.0 198.0
55 197.0 264.0
56 270.0 466.0
57 290.0 183.0
58 262.0 200.0
59 4.0 25.0
60 329.0 27.0
61 4.0 357.0
62 132.0 222.0
63 189.0 96.0
64 461.0 59.0
65 261.0 202.0
66 193.0 435.0
67 248.0 13.0
68 303.0 431.0
69 114.0 110.0
70 321.0 346.0
71 284.0 170.0
72 37.0 265.0
73 130.0 342.0
74 135.0 311.0
75 240.0 133.0
76 117.0 160.0
77 212.0 279.0
78 130.0 325.0
79 463.0 330.0
80 466.0 79.0
81 381.0 342.0
82 318.0 281.0
83 199.0 315.0
84 418.0 306.0
85 452.0 91.0
86 235.0 239.0
87 185.0 87.0
88 195.0 377.0
89 478.0 206.0
90 256.0 427.0
91 337.0 261.0
92 203.0 318.0
93 108.0 269.0
94 189.0 360.0
95 435.0 419.0
96 437.0 257.0
97 322.0 84.0
98 315.0 398.0
99 365.0 126.0
100 420.0 413.0
101 72.0 80.0
102 158.0 451.0
103 416.0 294.0
104 188.0 255.0
105 24.0 254.0
106 50.0 150.0
107 16.0 239.0
108 201.0 349.0
109 81.0 207.0
110 316.0 368.0
111 273.0 364.0
112 53.0 165.0
113 124.0 284.0
114 209.0 237.0
115 25.0 72.0
116 461.0 356.0
117 430.0 421.0
118 12.0 215.0
119 193.0 165.0
120 148.0 477.0
121 32.0 84.0
122 373.0 377.0
123 243.0 291.0
124 236.0 39.0
125 242.0 231.0
126 332.0 325.0
127 372.0 442.0
128 313.0 348.0
129 2.0 69.0
130 339.0 411.0
131 233.0 245.0
132 18.0 80.0
133 309.0 283.0
134 24.0 428.0
135 121.0 314.0
136 461.0 2.0
137 65.0 428.0
138 120.0 345.0
139 432.0 436.0
140 427.0 236.0
141 229.0 300.0
142 275.0 455.0
143 244.0 219.0
144 417.0 40.0
145 32.0 457.0
146 399.0 103.0
147 258.0 289.0
148 471.0 79.0
149 479.0 79.0
150 410.0 318.0
151 444.0 412.0
152 228.0 222.0
153 320.0 104.0
154 461.0 439.0
155 273.0 471.0
156 380.0 456.0
157 335.0 156.0
158 62.0 393.0
159 112.0 420.0
160 275.0 242.0
161 397.0 360.0
162 281.0 331.0
163 168.0 439.0
164 30.0 350.0
165 463.0 464.0
166 108.0 24.0
167 149.0 25.0
168 88.0 279.0
169 167.0 46.0
170 359.0 412.0
171 96.0 41.0
172 461.0 240.0
173 8.0 201.0
174 443.0 245.0
175 80.0 112.0
176 293.0 29.0
177 344.0 349.0
178 52.0 480.0
179 248.0 129.0
180 212.0 427.0
181 443.0 356.0
182 449.0 379.0
183 366.0 227.0
184 59.0 74.0
185 341.0 261.0
186 200.0 422.0
187 61.0 227.0
188 114.0 6.0
189 3.0 400.0
190 206.0 189.0
191 468.0 359.0
192 445.0 472.0
193 320.0 353.0
194 49.0 242.0
195 387.0 480.0
196 338.0 364.0
197 22.0 273.0
198 347.0 263.0
199 355.0 444.0
200 155.0 64.0
201 315.0 200.0
202 111.0 461.0
203 88.0 172.0
204 60.0 291.0
205 32.0 256.0
206 130.0 454.0
207 392.0 120.0
208 252.0 382.0
209 321.0 405.0
210 87.0 294.0
211 221.0 458.0
212 314.0 31.0
213 113.0 112.0
214 6.0 330.0
215 27.0 337.0
216 257.0 74.0
217 440.0 103.0
218 459.0 143.0
219 235.0 369.0
220 123.0 306.0
221 15.0 406.0
222 33.0 162.0
223 415.0 423.0
224 204.0 134.0
225 443.0 121.0
226 387.0 379.0
227 252.0 467.0
228 70.0 144.0
229 302.0 43.0
230 452.0 364.0
231 35.0 28.0
232 428.0 86.0
233 232.0 322.0
234 68.0 83.0
235 300.0 183.0
236 126.0 50.0
237 371.0 320.0
238 219.0 163.0
239 289.0 231.0
240 19.0 201.0
241 65.0 338.0
242 326.0 267.0
243 189.0 57.0
244 244.0 374.0
245 387.0 411.0
246 260.0 303.0
247 337.0 285.0
248 41.0 391.0
249 384.0 339.0
250 163.0 223.0
251 197.0 350.0
252 8.0 277.0
253 200.0 81.0
254 54.0 143.0
255 295.0 270.0
256 209.0 48.0
257 252.0 288.0
258 166.0 369.0
259 168.0 212.0
260 302.0 416.0
261 30.0 297.0
262 190.0 165.0
263 45.0 89.0
264 70.0 451.0
265 108.0 420.0
266 299.0 417.0
267 460.0 295.0
268 134.0 48.0
269 360.0 99.0
270 31.0 211.0
271 337.0 323.0
272 258.0 292.0
273 422.0 135.0
274 5.0 199.0
275 170.0 302.0
276 335.0 267.0
277 99.0 6.0
278 420.0 315.0
279 22.0 140.0
280 2.0 276.0
281 225.0 190.0
282 312.0 150.0
283 28.0 471.0
284 163.0 195.0
285 276.0 262.0
286 131.0 278.0
287 431.0 26.0
288 438.0 266.0
289 285.0 330.0
290 384.0 160.0
291 339.0 417.0
292 424.0 138.0
293 236.0 155.0
294 209.0 81.0
295 337.0 476.0
296 37.0 224.0
297 51.0 332.0
298 427.0 188.0
299 343.0 455.0
300 295.0 52.0
301 161.0 473.0
302 223.0 25.0
303 27.0 460.0
304 273.0 60.0
305 95.0 40.0
306 130.0 401.0
307 155.0 53.0
308 339.0 24.0
309 236.0 258.0
310 38.0 430.0
311 207.0 420.0
312 44.0 86.0
313 20.0 380.0
314 216.0 325.0
315 27.0 468.0
316 17.0 456.0
317 31.0 412.0
318 266.0 86.0
319 358.0 408.0
320 126.0 370.0
321 92.0 199.0
322 363.0 215.0
323 225.0 381.0
324 138.0 210.0
325 142.0 310.0
326 74.0 398.0
327 195.0 373.0
328 478.0 23.0
329 443.0 110.0
330 2.0 78.0
331 362.0 155.0
332 195.0 169.0
333 372.0 297.0
334 206.0 197.0
335 131.0 267.0
336 66.0 263.0
337 394.0 197.0
338 395.0 115.0
339 125.0 55.0
340 80.0 160.0
341 123.0 204.0
342 186.0 332.0
343 191.0 331.0
344 180.0 402.0
345 43.0 227.0
346 439.0 195.0
347 111.0 395.0
348 33.0 334.0
349 440.0 20.0
350 159.0 429.0
351 276.0 196.0
352 375.0 415.0
353 126.0 126.0
354 221.0 149.0
355 281.0 195.0
356 360.0 264.0
357 396.0 347.0
358 341.0 209.0
359 56.0 26.0
360 435.0 148.0
361 98.0 247.0
362 137.0 105.0
363 207.0 191.0
364 378.0 109.0
365 435.0 345.0
366 121.0 217.0
367 234.0 254.0
368 248.0 254.0
369 317.0 17.0
370 204.0 260.0
371 411.0 286.0
372 361.0 291.0
373 474.0 374.0
374 419.0 347.0
375 444.0 130.0
376 202.0 383.0
377 271.0 8.0
378 478.0 452.0
379 24.0 402.0
380 47.0 121.0
381 334.0 134.0
382 95.0 192.0
383 246.0 172.0
384 417.0 382.0
385 5.0 192.0
386 169.0 70.0
387 363.0 95.0
388 194.0 162.0
389 38.0 309.0
390 353.0 224.0
391 417.0 452.0
392 450.0 448.0
393 25.0 143.0
394 225.0 126.0
395 292.0 263.0
396 105.0 204.0
397 147.0 5.0
398 18.0 72.0
399 107.0 5.0
400 72.0 464.0
401 401.0 303.0
402 136.0 281.0
403 171.0 327.0
404 285.0 23.0
405 127.0 120.0
406 250.0 121.0
407 411.0 331.0
408 197.0 459.0
409 180.0 267.0
410 328.0 149.0
411 386.0 16.0
412 409.0 37.0
413 453.0 55.0
414 301.0 1.0
415 9.0 336.0
416 30.0 183.0
417 75.0 470.0
418 390.0 150.0
419 439.0 256.0
420 369.0 367.0
421 457.0 366.0
422 185.0 473.0
423 259.0 148.0
424 41.0 148.0
425 464.0 182.0
426 390.0 227.0
427 313.0 133.0
428 190.0 215.0
429 222.0 427.0
430 4.0 469.0
431 320.0 252.0
432 2.0 437.0
433 142.0 24.0
434 201.0 303.0
435 164.0 195.0
436 179.0 317.0
437 75.0 465.0
438 235.0 408.0
439 59.0 479.0
440 318.0 281.0
441 204.0 223.0
442 222.0 269.0
443 236.0 80.0
444 95.0 249.0
445 116.0 99.0
446 356.0 289.0
447 95.0 25.0
448 101.0 34.0
449 98.0 356.0
450 392.0 291.0
451 344.0 274.0
452 421.0 351.0
453 287.0 257.0
454 17.0 105.0
455 55.0 280.0
456 123.0 49.0
457 311.0 19.0
458 216.0 60.0
459 310.0 451.0
460 135.0 388.0
461 130.0 253.0
462 47.0 441.0
463 473.0 106.0
464 301.0 160.0
465 180.0 91.0
466 181.0 45.0
467 98.0 288.0
468 404.0 329.0
469 457.0 356.0
470 16.0 247.0
471 172.0 290.0
472 184.0 218.0
473 334.0 259.0
474 89.0 425.0
475 96.0 165.0
476 452.0 429.0
477 344.0 17.0
478 325.0 181.0
479 7.0 183.0
480 468.0 173.0
EOF





